instances/in_50_25_10_2.dzn
n = 50;
k = 25;
h = 10;
tiles = array2d(1..n, 1..2,
[ 6,1
, 11,23
, 19,18
, 23,15
, 21,5
, 19,18
, 2,19
, 12,7
, 6,8
, 8,17
, 15,23
, 19,7
, 5,6
, 18,11
, 6,16
, 10,18
, 24,18
, 18,22
, 11,23
, 6,19
, 2,18
, 19,3
, 21,23
, 16,23
, 4,5
, 22,22
, 23,2
, 15,13
, 5,4
, 18,16
, 13,24
, 8,2
, 16,22
, 4,7
, 9,25
, 21,21
, 4,12
, 14,2
, 4,20
, 10,12
, 22,14
, 1,8
, 15,11
, 2,1
, 22,23
, 16,16
, 17,8
, 22,4
, 23,20
, 4,8
]);