instances/in_50_25_10_2.lp
#const n = 50.
#const k = 25.
#const h = 10.
tile(1,6,1).
tile(2,11,23).
tile(3,19,18).
tile(4,23,15).
tile(5,21,5).
tile(6,19,18).
tile(7,2,19).
tile(8,12,7).
tile(9,6,8).
tile(10,8,17).
tile(11,15,23).
tile(12,19,7).
tile(13,5,6).
tile(14,18,11).
tile(15,6,16).
tile(16,10,18).
tile(17,24,18).
tile(18,18,22).
tile(19,11,23).
tile(20,6,19).
tile(21,2,18).
tile(22,19,3).
tile(23,21,23).
tile(24,16,23).
tile(25,4,5).
tile(26,22,22).
tile(27,23,2).
tile(28,15,13).
tile(29,5,4).
tile(30,18,16).
tile(31,13,24).
tile(32,8,2).
tile(33,16,22).
tile(34,4,7).
tile(35,9,25).
tile(36,21,21).
tile(37,4,12).
tile(38,14,2).
tile(39,4,20).
tile(40,10,12).
tile(41,22,14).
tile(42,1,8).
tile(43,15,11).
tile(44,2,1).
tile(45,22,23).
tile(46,16,16).
tile(47,17,8).
tile(48,22,4).
tile(49,23,20).
tile(50,4,8).
